(set-logic BV) (define-fun origCir ((n233 Bool) (n325 Bool) (n254 Bool) (n207 Bool) (i55 Bool)) Bool (xor (and (xor n325 (not (and n254 n207))) n233) i55)) (synth-fun skel ((n233 Bool) (n325 Bool) (n254 Bool) (n207 Bool) (i55 Bool)) Bool) (declare-var n233 Bool) (declare-var n325 Bool) (declare-var n254 Bool) (declare-var n207 Bool) (declare-var i55 Bool) (constraint (= (origCir n233 n325 n254 n207 i55) (skel n233 n325 n254 n207 i55))) (check-synth)
